c This is QMaxSAT 2017 based on 14.07
c This is Glucose 3.0
c This is MiniSat 2.2.0
c WARNING: for repeatability, setting FPU to use double precision
c card = mrwto, comp = 0, pmodel = 0, narr = 34, mct = 76, verb = 0
cr firstCPXsol 0 0 0
c top = 189219
c |  Number of variables:    23762                                            |
c |  Number of clauses:      2022443                                          |
c |  Weight of hard clauses: 189219                                           |
c |  Number of soft clauses: 362100                                           |
c |  Number of unit soft clauses: 0                                           |
c |  Maximum Cardinality (by unit): 11742716     (0           )               |
c last restart ## conflicts  :  0 7794 
o 745 | cpuTime 11.3592 s
c Sum of weights = 345374
c A number of soft clauses remained = 10650
c MRWTO encoding for Pseudo-Boolean Constraints
c sizeMax=745
c No.0 Divisor=10	generated by pow1
c No.1 Divisor=10	generated by pow1
c No.2 Divisor=10	generated by pow1
c p0= 10	p1= 10	p2= 10	
c number of digits = 4
c linkingVar[0].size = 10, linkingVar[1].size = 10, linkingVar[2].size = 8, linkingVar[3].size = 1, 
c Pseudo-Boolean Constraints: 191189 variables and 1473509 clauses
c Sum of weights = 345374
c A number of soft clauses remained = 10650
c MRWTO encoding for Pseudo-Boolean Constraints
c sizeMax=745
c No.0 Divisor=10	generated by pow1
c No.1 Divisor=10	generated by pow1
c No.2 Divisor=10	generated by pow1
c p0= 10	p1= 10	p2= 10	
c number of digits = 4
c linkingVar[0].size = 10, linkingVar[1].size = 10, linkingVar[2].size = 8, linkingVar[3].size = 1, 
c Pseudo-Boolean Constraints: 191189 variables and 1473509 clauses
c Sum of weights = 345374
c A number of soft clauses remained = 10650
c MRWTO encoding for Pseudo-Boolean Constraints
c sizeMax=745
c No.0 Divisor=10	generated by pow1
c No.1 Divisor=10	generated by pow1
c No.2 Divisor=10	generated by pow1
c p0= 10	p1= 10	p2= 10	
c number of digits = 4
c linkingVar[0].size = 10, linkingVar[1].size = 10, linkingVar[2].size = 8, linkingVar[3].size = 1, 
c Pseudo-Boolean Constraints: 191189 variables and 1473509 clauses
c Sum of weights = 345374
c A number of soft clauses remained = 10650
c MRWTO encoding for Pseudo-Boolean Constraints
c sizeMax=745
c No.0 Divisor=10	generated by pow1
c No.1 Divisor=10	generated by pow1
c No.2 Divisor=10	generated by pow1
c p0= 10	p1= 10	p2= 10	
c number of digits = 4
c linkingVar[0].size = 10, linkingVar[1].size = 10, linkingVar[2].size = 8, linkingVar[3].size = 1, 
c Pseudo-Boolean Constraints: 191189 variables and 1473509 clauses
c Sum of weights = 345374
c A number of soft clauses remained = 10650
c MRWTO encoding for Pseudo-Boolean Constraints
c sizeMax=745
c No.0 Divisor=10	generated by pow1
c No.1 Divisor=10	generated by pow1
c No.2 Divisor=10	generated by pow1
c p0= 10	p1= 10	p2= 10	
c number of digits = 4
c linkingVar[0].size = 10, linkingVar[1].size = 10, linkingVar[2].size = 8, linkingVar[3].size = 1, 
c Pseudo-Boolean Constraints: 191189 variables and 1473509 clauses
c Sum of weights = 345374
c A number of soft clauses remained = 10650
c MRWTO encoding for Pseudo-Boolean Constraints
c sizeMax=745
c No.0 Divisor=10	generated by pow1
c No.1 Divisor=10	generated by pow1
c No.2 Divisor=10	generated by pow1
c p0= 10	p1= 10	p2= 10	
c number of digits = 4
c linkingVar[0].size = 10, linkingVar[1].size = 10, linkingVar[2].size = 8, linkingVar[3].size = 1, 
c Pseudo-Boolean Constraints: 191189 variables and 1473509 clauses
c Sum of weights = 345374
c A number of soft clauses remained = 10650
c MRWTO encoding for Pseudo-Boolean Constraints
c sizeMax=745
c No.0 Divisor=10	generated by pow1
c No.1 Divisor=10	generated by pow1
c No.2 Divisor=10	generated by pow1
c p0= 10	p1= 10	p2= 10	
c number of digits = 4
c linkingVar[0].size = 10, linkingVar[1].size = 10, linkingVar[2].size = 8, linkingVar[3].size = 1, 
c Pseudo-Boolean Constraints: 191189 variables and 1473509 clauses
c Sum of weights = 345374
c A number of soft clauses remained = 10650
c MRWTO encoding for Pseudo-Boolean Constraints
c sizeMax=745
c No.0 Divisor=10	generated by pow1
c No.1 Divisor=10	generated by pow1
c No.2 Divisor=10	generated by pow1
c p0= 10	p1= 10	p2= 10	
c number of digits = 4
c linkingVar[0].size = 10, linkingVar[1].size = 10, linkingVar[2].size = 8, linkingVar[3].size = 1, 
c Pseudo-Boolean Constraints: 191189 variables and 1473509 clauses
c Sum of weights = 345374
c A number of soft clauses remained = 10650
c MRWTO encoding for Pseudo-Boolean Constraints
c sizeMax=745
c No.0 Divisor=10	generated by pow1
c No.1 Divisor=10	generated by pow1
c No.2 Divisor=10	generated by pow1
c p0= 10	p1= 10	p2= 10	
c number of digits = 4
c linkingVar[0].size = 10, linkingVar[1].size = 10, linkingVar[2].size = 8, linkingVar[3].size = 1, 
c Pseudo-Boolean Constraints: 191189 variables and 1473509 clauses
c Sum of weights = 345374
c A number of soft clauses remained = 10650
c MRWTO encoding for Pseudo-Boolean Constraints
c sizeMax=745
c No.0 Divisor=10	generated by pow1
c No.1 Divisor=10	generated by pow1
c No.2 Divisor=10	generated by pow1
c p0= 10	p1= 10	p2= 10	
c number of digits = 4
c linkingVar[0].size = 10, linkingVar[1].size = 10, linkingVar[2].size = 8, linkingVar[3].size = 1, 
c Pseudo-Boolean Constraints: 191189 variables and 1473509 clauses
c Sum of weights = 345374
c A number of soft clauses remained = 10650
c MRWTO encoding for Pseudo-Boolean Constraints
c sizeMax=745
c No.0 Divisor=10	generated by pow1
c No.1 Divisor=10	generated by pow1
c No.2 Divisor=10	generated by pow1
c p0= 10	p1= 10	p2= 10	
c number of digits = 4
c linkingVar[0].size = 10, linkingVar[1].size = 10, linkingVar[2].size = 8, linkingVar[3].size = 1, 
c Pseudo-Boolean Constraints: 191189 variables and 1473509 clauses
c Sum of weights = 345374
c A number of soft clauses remained = 10650
c MRWTO encoding for Pseudo-Boolean Constraints
c sizeMax=745
c No.0 Divisor=10	generated by pow1
c No.1 Divisor=10	generated by pow1
c No.2 Divisor=10	generated by pow1
c p0= 10	p1= 10	p2= 10	
c number of digits = 4
c linkingVar[0].size = 10, linkingVar[1].size = 10, linkingVar[2].size = 8, linkingVar[3].size = 1, 
c Pseudo-Boolean Constraints: 191189 variables and 1473509 clauses
c Sum of weights = 345374
c A number of soft clauses remained = 10650
c MRWTO encoding for Pseudo-Boolean Constraints
c sizeMax=745
c No.0 Divisor=10	generated by pow1
c No.1 Divisor=10	generated by pow1
c No.2 Divisor=10	generated by pow1
c p0= 10	p1= 10	p2= 10	
c number of digits = 4
c linkingVar[0].size = 10, linkingVar[1].size = 10, linkingVar[2].size = 8, linkingVar[3].size = 1, 
c Pseudo-Boolean Constraints: 191189 variables and 1473509 clauses
c Sum of weights = 345374
c A number of soft clauses remained = 10650
c MRWTO encoding for Pseudo-Boolean Constraints
c sizeMax=745
c No.0 Divisor=10	generated by pow1
c No.1 Divisor=10	generated by pow1
c No.2 Divisor=10	generated by pow1
c p0= 10	p1= 10	p2= 10	
c number of digits = 4
c linkingVar[0].size = 10, linkingVar[1].size = 10, linkingVar[2].size = 8, linkingVar[3].size = 1, 
c Pseudo-Boolean Constraints: 191189 variables and 1473509 clauses
c Sum of weights = 345374
c A number of soft clauses remained = 10650
c MRWTO encoding for Pseudo-Boolean Constraints
c sizeMax=745
c No.0 Divisor=10	generated by pow1
c No.1 Divisor=10	generated by pow1
c No.2 Divisor=10	generated by pow1
c p0= 10	p1= 10	p2= 10	
c number of digits = 4
c linkingVar[0].size = 10, linkingVar[1].size = 10, linkingVar[2].size = 8, linkingVar[3].size = 1, 
c Pseudo-Boolean Constraints: 191189 variables and 1473509 clauses
c Sum of weights = 345374
c A number of soft clauses remained = 10650
c MRWTO encoding for Pseudo-Boolean Constraints
c sizeMax=745
c No.0 Divisor=10	generated by pow1
c No.1 Divisor=10	generated by pow1
c No.2 Divisor=10	generated by pow1
c p0= 10	p1= 10	p2= 10	
c number of digits = 4
c linkingVar[0].size = 10, linkingVar[1].size = 10, linkingVar[2].size = 8, linkingVar[3].size = 1, 
c Pseudo-Boolean Constraints: 191189 variables and 1473509 clauses
c Sum of weights = 345374
c A number of soft clauses remained = 10650
c MRWTO encoding for Pseudo-Boolean Constraints
c sizeMax=745
c No.0 Divisor=10	generated by pow1
c No.1 Divisor=10	generated by pow1
c No.2 Divisor=10	generated by pow1
c p0= 10	p1= 10	p2= 10	
c number of digits = 4
c linkingVar[0].size = 10, linkingVar[1].size = 10, linkingVar[2].size = 8, linkingVar[3].size = 1, 
c Pseudo-Boolean Constraints: 191189 variables and 1473509 clauses
c Sum of weights = 345374
c A number of soft clauses remained = 10650
c MRWTO encoding for Pseudo-Boolean Constraints
c sizeMax=745
c No.0 Divisor=10	generated by pow1
c No.1 Divisor=10	generated by pow1
c No.2 Divisor=10	generated by pow1
c p0= 10	p1= 10	p2= 10	
c number of digits = 4
c linkingVar[0].size = 10, linkingVar[1].size = 10, linkingVar[2].size = 8, linkingVar[3].size = 1, 
c Pseudo-Boolean Constraints: 191189 variables and 1473509 clauses
c Sum of weights = 345374
c A number of soft clauses remained = 10650
c MRWTO encoding for Pseudo-Boolean Constraints
c sizeMax=745
c No.0 Divisor=10	generated by pow1
c No.1 Divisor=10	generated by pow1
c No.2 Divisor=10	generated by pow1
c p0= 10	p1= 10	p2= 10	
c number of digits = 4
c linkingVar[0].size = 10, linkingVar[1].size = 10, linkingVar[2].size = 8, linkingVar[3].size = 1, 
c Pseudo-Boolean Constraints: 191189 variables and 1473509 clauses
c Sum of weights = 345374
c A number of soft clauses remained = 10650
c MRWTO encoding for Pseudo-Boolean Constraints
c sizeMax=745
c No.0 Divisor=10	generated by pow1
c No.1 Divisor=10	generated by pow1
c No.2 Divisor=10	generated by pow1
c p0= 10	p1= 10	p2= 10	
c number of digits = 4
c linkingVar[0].size = 10, linkingVar[1].size = 10, linkingVar[2].size = 8, linkingVar[3].size = 1, 
c Pseudo-Boolean Constraints: 191189 variables and 1473509 clauses
c Sum of weights = 345374
c A number of soft clauses remained = 10650
c MRWTO encoding for Pseudo-Boolean Constraints
c sizeMax=745
c No.0 Divisor=10	generated by pow1
c No.1 Divisor=10	generated by pow1
c No.2 Divisor=10	generated by pow1
c p0= 10	p1= 10	p2= 10	
c number of digits = 4
c linkingVar[0].size = 10, linkingVar[1].size = 10, linkingVar[2].size = 8, linkingVar[3].size = 1, 
c Pseudo-Boolean Constraints: 191189 variables and 1473509 clauses
c Sum of weights = 345374
c A number of soft clauses remained = 10650
c MRWTO encoding for Pseudo-Boolean Constraints
c sizeMax=745
c No.0 Divisor=10	generated by pow1
c No.1 Divisor=10	generated by pow1
c No.2 Divisor=10	generated by pow1
c p0= 10	p1= 10	p2= 10	
c number of digits = 4
c linkingVar[0].size = 10, linkingVar[1].size = 10, linkingVar[2].size = 8, linkingVar[3].size = 1, 
c Pseudo-Boolean Constraints: 191189 variables and 1473509 clauses
c Sum of weights = 345374
c A number of soft clauses remained = 10650
c MRWTO encoding for Pseudo-Boolean Constraints
c sizeMax=745
c No.0 Divisor=10	generated by pow1
c No.1 Divisor=10	generated by pow1
c No.2 Divisor=10	generated by pow1
c p0= 10	p1= 10	p2= 10	
c number of digits = 4
c linkingVar[0].size = 10, linkingVar[1].size = 10, linkingVar[2].size = 8, linkingVar[3].size = 1, 
c Pseudo-Boolean Constraints: 191189 variables and 1473509 clauses
c Sum of weights = 345374
c A number of soft clauses remained = 10650
c MRWTO encoding for Pseudo-Boolean Constraints
c sizeMax=745
c No.0 Divisor=10	generated by pow1
c No.1 Divisor=10	generated by pow1
c No.2 Divisor=10	generated by pow1
c p0= 10	p1= 10	p2= 10	
c number of digits = 4
c linkingVar[0].size = 10, linkingVar[1].size = 10, linkingVar[2].size = 8, linkingVar[3].size = 1, 
c Pseudo-Boolean Constraints: 191189 variables and 1473509 clauses
c Sum of weights = 345374
c A number of soft clauses remained = 10650
c MRWTO encoding for Pseudo-Boolean Constraints
c sizeMax=745
c No.0 Divisor=10	generated by pow1
c No.1 Divisor=10	generated by pow1
c No.2 Divisor=10	generated by pow1
c p0= 10	p1= 10	p2= 10	
c number of digits = 4
c linkingVar[0].size = 10, linkingVar[1].size = 10, linkingVar[2].size = 8, linkingVar[3].size = 1, 
c Pseudo-Boolean Constraints: 191189 variables and 1473509 clauses
c Sum of weights = 345374
c A number of soft clauses remained = 10650
c MRWTO encoding for Pseudo-Boolean Constraints
c sizeMax=745
c No.0 Divisor=10	generated by pow1
c No.1 Divisor=10	generated by pow1
c No.2 Divisor=10	generated by pow1
c p0= 10	p1= 10	p2= 10	
c number of digits = 4
c linkingVar[0].size = 10, linkingVar[1].size = 10, linkingVar[2].size = 8, linkingVar[3].size = 1, 
c Pseudo-Boolean Constraints: 191189 variables and 1473509 clauses
c Sum of weights = 345374
c A number of soft clauses remained = 10650
c MRWTO encoding for Pseudo-Boolean Constraints
c sizeMax=745
c No.0 Divisor=10	generated by pow1
c No.1 Divisor=10	generated by pow1
c No.2 Divisor=10	generated by pow1
c p0= 10	p1= 10	p2= 10	
c number of digits = 4
c linkingVar[0].size = 10, linkingVar[1].size = 10, linkingVar[2].size = 8, linkingVar[3].size = 1, 
c Pseudo-Boolean Constraints: 191189 variables and 1473509 clauses
c Sum of weights = 345374
c A number of soft clauses remained = 10650
c MRWTO encoding for Pseudo-Boolean Constraints
c sizeMax=745
c No.0 Divisor=10	generated by pow1
c No.1 Divisor=10	generated by pow1
c No.2 Divisor=10	generated by pow1
c p0= 10	p1= 10	p2= 10	
c number of digits = 4
c linkingVar[0].size = 10, linkingVar[1].size = 10, linkingVar[2].size = 8, linkingVar[3].size = 1, 
c Pseudo-Boolean Constraints: 191189 variables and 1473509 clauses
c Sum of weights = 345374
c A number of soft clauses remained = 10650
c MRWTO encoding for Pseudo-Boolean Constraints
c sizeMax=745
c No.0 Divisor=10	generated by pow1
c No.1 Divisor=10	generated by pow1
c No.2 Divisor=10	generated by pow1
c p0= 10	p1= 10	p2= 10	
c number of digits = 4
c linkingVar[0].size = 10, linkingVar[1].size = 10, linkingVar[2].size = 8, linkingVar[3].size = 1, 
c Pseudo-Boolean Constraints: 191189 variables and 1473509 clauses
c Sum of weights = 345374
c A number of soft clauses remained = 10650
c MRWTO encoding for Pseudo-Boolean Constraints
c sizeMax=745
c No.0 Divisor=10	generated by pow1
c No.1 Divisor=10	generated by pow1
c No.2 Divisor=10	generated by pow1
c p0= 10	p1= 10	p2= 10	
c number of digits = 4
c linkingVar[0].size = 10, linkingVar[1].size = 10, linkingVar[2].size = 8, linkingVar[3].size = 1, 
c Pseudo-Boolean Constraints: 191189 variables and 1473509 clauses
c Sum of weights = 345374
c A number of soft clauses remained = 10650
c MRWTO encoding for Pseudo-Boolean Constraints
c sizeMax=745
c No.0 Divisor=10	generated by pow1
c No.1 Divisor=10	generated by pow1
c No.2 Divisor=10	generated by pow1
c p0= 10	p1= 10	p2= 10	
c number of digits = 4
c linkingVar[0].size = 10, linkingVar[1].size = 10, linkingVar[2].size = 8, linkingVar[3].size = 1, 
c Pseudo-Boolean Constraints: 191189 variables and 1473509 clauses
c Sum of weights = 345374
c A number of soft clauses remained = 10650
c MRWTO encoding for Pseudo-Boolean Constraints
c sizeMax=745
c No.0 Divisor=10	generated by pow1
c No.1 Divisor=10	generated by pow1
c No.2 Divisor=10	generated by pow1
c p0= 10	p1= 10	p2= 10	
c number of digits = 4
c linkingVar[0].size = 10, linkingVar[1].size = 10, linkingVar[2].size = 8, linkingVar[3].size = 1, 
c Pseudo-Boolean Constraints: 191189 variables and 1473509 clauses
c Sum of weights = 345374
c A number of soft clauses remained = 10650
c MRWTO encoding for Pseudo-Boolean Constraints
c sizeMax=745
c No.0 Divisor=10	generated by pow1
c No.1 Divisor=10	generated by pow1
c No.2 Divisor=10	generated by pow1
c p0= 10	p1= 10	p2= 10	
c number of digits = 4
c linkingVar[0].size = 10, linkingVar[1].size = 10, linkingVar[2].size = 8, linkingVar[3].size = 1, 
c Pseudo-Boolean Constraints: 191189 variables and 1473509 clauses
c Sum of weights = 345374
c A number of soft clauses remained = 10650
c MRWTO encoding for Pseudo-Boolean Constraints
c sizeMax=745
c No.0 Divisor=10	generated by pow1
c No.1 Divisor=10	generated by pow1
c No.2 Divisor=10	generated by pow1
c p0= 10	p1= 10	p2= 10	
c number of digits = 4
c linkingVar[0].size = 10, linkingVar[1].size = 10, linkingVar[2].size = 8, linkingVar[3].size = 1, 
c Pseudo-Boolean Constraints: 191189 variables and 1473509 clauses
c last restart ## conflicts  :  303 82542 
o 443 | cpuTime 25.7783 s
c last restart ## conflicts  :  501 101445 
o 353 | cpuTime 56.3062 s
c last restart ## conflicts  :  252 51440 
o 270 | cpuTime 83.7334 s
c last restart ## conflicts  :  206 34929 
o 233 | cpuTime 116.246 s
c last restart ## conflicts  :  231 78210 
o 174 | cpuTime 144.149 s
c last restart ## conflicts  :  743 22618 
o 168 | cpuTime 175.66 s
c last restart ## conflicts  :  230 54661 
o 157 | cpuTime 684.252 s
c last restart ## conflicts  :  180 57377 
o 142 | cpuTime 1095.58 s
c last restart ## conflicts  :  352 58181 
o 138 | cpuTime 1796.52 s
s UNKNOWN
c Search is stopped by a limit (maybe time-limit)
cr positiVarArr: [ | 50(1->17) | 212(1->70) | 265(1->14) | 382(1->22) | 485(1->16) | 607(1->29) | 722(1->35) | 851(1->55) | 958(1->53) | 1087(1->73) | 1173(1->50) | 1291(1->59) | 1398(1->57) | 1496(1->46) | 1596(1->37) | 1679(1->11) | 1802(1->25) | 1938(1->52) | 2051(1->56) | 2166(1->62) | 2255(1->42) | 2383(1->61) | 2485(1->54) | 2567(1->27) | 2655(1->6) | 2823(1->65) | 2916(1->49) | 2978(1->2) | 3113(1->28) | 3202(1->8) | 3369(1->66) | 3455(1->43) | 3545(1->24) | 3693(1->63) | 3813(2->74) | 3871(3->23) | 4032(4->75) | 4079(5->13) | 4242(6->67) | 4252(7->1) | 4408(8->15) | 4533(9->31) | 4650(10->39) | 4710(11->1) | 4867(12->38) | 4945(13->7) | 5030(14->1) | 5227(15->71) | 5298(16->33) | 5386(17->12) | 5527(18->44) | 5562(19->1) | 5770(20->69) | 5791(21->1) | 5959(22->40) | 6023(23->1) | 6201(24->64) | 6264(25->18) | 6351(26->1) | 6498(27->34) | 6566(28->1) | 6758(29->76) | 6764(30->1) | 6877(31->1) | 7018(32->9) | 7166(33->48) | 7216(34->1) | 7321(35->1) | 7492(36->47) | 7584(37->30) | 7634(38->1) | 7844(39->72) | 7939(40->58) | 7984(41->1) | 8086(42->1) | 8249(43->41) | 8320(44->3) | 8406(45->1) | 8586(46->51) | 8665(47->21) | 8773(48->20) | 8894(49->32) | 9016(50->45) | 9056(51->1) | 9164(52->1) | 9272(53->1) | 9385(54->1) | 9516(55->1) | 9617(56->1) | 9733(57->1) | 9853(58->10) | 9949(59->1) | 10033(60->1) | 10149(61->1) | 10265(62->1) | 10386(63->1) | 10488(64->1) | 10594(65->1) | 10697(66->1) | 10850(67->26) | 10937(68->4) | 11078(69->36) | 11156(70->5) | 11320(71->60) | 11353(72->1) | 11479(73->1) | 11606(74->19) | 11665(75->1) | 11873(76->68) | ]
cr the 1-th chain: [ 1->17->12->38->1 ] (#non-depot=3) {#cumul.=4}
cr the 2-th chain: [ 1->70->5->13->7->1 ] (#non-depot=4) {#cumul.=8}
cr the 3-th chain: [ 1->14->1 ] (#non-depot=1) {#cumul.=9}
cr the 4-th chain: [ 1->22->40->58->10->39->72->1 ] (#non-depot=6) {#cumul.=15}
cr the 5-th chain: [ 1->16->33->48->20->69->36->47->21->1 ] (#non-depot=8) {#cumul.=23}
cr the 6-th chain: [ 1->29->76->68->4->75->1 ] (#non-depot=5) {#cumul.=28}
cr the 7-th chain: [ 1->35->1 ] (#non-depot=1) {#cumul.=29}
cr the 8-th chain: [ 1->55->1 ] (#non-depot=1) {#cumul.=30}
cr the 9-th chain: [ 1->53->1 ] (#non-depot=1) {#cumul.=31}
cr the 10-th chain: [ 1->73->1 ] (#non-depot=1) {#cumul.=32}
cr the 11-th chain: [ 1->50->45->1 ] (#non-depot=2) {#cumul.=34}
cr the 12-th chain: [ 1->59->1 ] (#non-depot=1) {#cumul.=35}
cr the 13-th chain: [ 1->57->1 ] (#non-depot=1) {#cumul.=36}
cr the 14-th chain: [ 1->46->51->1 ] (#non-depot=2) {#cumul.=38}
cr the 15-th chain: [ 1->37->30->1 ] (#non-depot=2) {#cumul.=40}
cr the 16-th chain: [ 1->11->1 ] (#non-depot=1) {#cumul.=41}
cr the 17-th chain: [ 1->25->18->44->3->23->1 ] (#non-depot=5) {#cumul.=46}
cr the 18-th chain: [ 1->52->1 ] (#non-depot=1) {#cumul.=47}
cr the 19-th chain: [ 1->56->1 ] (#non-depot=1) {#cumul.=48}
cr the 20-th chain: [ 1->62->1 ] (#non-depot=1) {#cumul.=49}
cr the 21-th chain: [ 1->42->1 ] (#non-depot=1) {#cumul.=50}
cr the 22-th chain: [ 1->61->1 ] (#non-depot=1) {#cumul.=51}
cr the 23-th chain: [ 1->54->1 ] (#non-depot=1) {#cumul.=52}
cr the 24-th chain: [ 1->27->34->1 ] (#non-depot=2) {#cumul.=54}
cr the 25-th chain: [ 1->6->67->26->1 ] (#non-depot=3) {#cumul.=57}
cr the 26-th chain: [ 1->65->1 ] (#non-depot=1) {#cumul.=58}
cr the 27-th chain: [ 1->49->32->9->31->1 ] (#non-depot=4) {#cumul.=62}
cr the 28-th chain: [ 1->2->74->19->1 ] (#non-depot=3) {#cumul.=65}
cr the 29-th chain: [ 1->28->1 ] (#non-depot=1) {#cumul.=66}
cr the 30-th chain: [ 1->8->15->71->60->1 ] (#non-depot=4) {#cumul.=70}
cr the 31-th chain: [ 1->66->1 ] (#non-depot=1) {#cumul.=71}
cr the 32-th chain: [ 1->43->41->1 ] (#non-depot=2) {#cumul.=73}
cr the 33-th chain: [ 1->24->64->1 ] (#non-depot=2) {#cumul.=75}
cr the 34-th chain: [ 1->63->1 ] (#non-depot=1) {#cumul.=76}
c Latest Answer = 0 by 10 loops
c restarts              : 12488
c conflicts             : 2527743        (703 /sec)
c decisions             : 155840414      (0.00 % random) (43350 /sec)
c propagations          : 34043052240    (9469825 /sec)
c conflict literals     : 746619239      (23.49 % deleted)
c Memory used           : 6155.00 MB
c CPU time              : 3594.9 s
